(set-info :smt-lib-version 2.6)
(set-logic ALL)
(set-info :source |
Generated on: 2026-06-22
Generator: ppTransSmt github.com/CLEARSY/pptranspog
Application: Discharging a proof obligation generated by aTelierB from an anonymized B machine
Target solver: CVC5
Time limit: 1200.0
|)
(set-info :license "www.gnu.org/licenses/gpl-3.0.en.html")
(set-info :category "industrial")
(set-info :status unknown)

; Prelude
(declare-sort P 1)
(declare-fun mem0 (Int (P Int)) Bool)
(declare-sort C 2)
(define-fun MinInt () Int (- 2147483648))
(define-fun MaxInt () Int 2147483647)
; Global declarations
(declare-fun g_s0_0 () Int)
(declare-fun g_s1_1 () Int)
(declare-fun g_s20_8 () Bool)
(declare-fun g_s2_2 () Int)
(declare-fun g_s3_3 () Int)
(declare-fun g_s4_4 () (P (C Int Bool)))
(declare-fun g_s5_5 () (P (C Int Bool)))
(declare-fun g_s6_6 () (P (C Int Bool)))
(declare-fun g_s7_7 () (P (C Int Bool)))
(declare-fun g_s8_9 () Int)
(declare-fun mem2 ( Int Bool (P (C Int Bool))) Bool)
; Defines
(define-fun |def_lprp_0| () Bool (<= 0 g_s0_0))
(define-fun |def_lprp_1| () Bool (<= 0 g_s1_1))
(define-fun |def_lprp_2| () Bool (<= 0 g_s2_2))
(define-fun |def_lprp_3| () Bool (>= g_s1_1 g_s2_2))
(define-fun |def_inv_0| () Bool (<= 0 g_s3_3))
(define-fun |def_inv_1| () Bool (and (forall ( (x_3 Bool) (x_4 Int) ) (=> (mem2 x_4 x_3 g_s4_4) (and (and (>= x_4 g_s0_0) (<= x_4 g_s3_3)) true))) (forall ( (x_5 Int) (x_6 Bool) (x_7 Bool) ) (=> (and  (mem2 x_5 x_6 g_s4_4) (mem2 x_5 x_7 g_s4_4)) (= x_6 x_7)))))
(define-fun |def_inv_2| () Bool (and (forall ( (x_8 Bool) (x_9 Int) ) (=> (mem2 x_9 x_8 g_s5_5) (and (and (>= x_9 g_s0_0) (<= x_9 g_s3_3)) true))) (forall ( (x_10 Int) (x_11 Bool) (x_12 Bool) ) (=> (and  (mem2 x_10 x_11 g_s5_5) (mem2 x_10 x_12 g_s5_5)) (= x_11 x_12)))))
(define-fun |def_inv_3| () Bool (and (forall ( (x_13 Bool) (x_14 Int) ) (=> (mem2 x_14 x_13 g_s6_6) (and (and (>= x_14 g_s0_0) (<= x_14 g_s3_3)) true))) (forall ( (x_15 Int) (x_16 Bool) (x_17 Bool) ) (=> (and  (mem2 x_15 x_16 g_s6_6) (mem2 x_15 x_17 g_s6_6)) (= x_16 x_17)))))
(define-fun |def_inv_4| () Bool (and (forall ( (x_18 Bool) (x_19 Int) ) (=> (mem2 x_19 x_18 g_s7_7) (and (and (>= x_19 g_s0_0) (<= x_19 g_s3_3)) true))) (forall ( (x_20 Int) (x_21 Bool) (x_22 Bool) ) (=> (and  (mem2 x_20 x_21 g_s7_7) (mem2 x_20 x_22 g_s7_7)) (= x_21 x_22)))))
(define-fun |def_inv_5| () Bool (<= g_s0_0 g_s3_3))
(define-fun |def_inv_6| () Bool (forall ( (x_23 Int) ) (=> (and (>= x_23 g_s0_0) (<= x_23 (- g_s3_3 1))) (exists ( (x_24 Bool) ) (mem2 x_23 x_24 g_s7_7)))))
(define-fun |def_inv_7| () Bool (forall ( (x_25 Bool) (x_26 Int) ) (=> (mem2 x_26 x_25 g_s5_5) (mem2 x_26 x_25 g_s4_4))))
(define-fun |def_inv_8| () Bool (forall ( (x_27 Bool) (x_28 Int) ) (=> (mem2 x_28 x_27 g_s6_6) (mem2 x_28 x_27 g_s5_5))))
(define-fun |def_inv_9| () Bool (forall ( (l_s8 Int) ) (=> (and  (exists ( (x_29 Bool) ) (mem2 l_s8 x_29 g_s7_7)) (forall ((x_30 Bool) ) (=> (= x_30 true) (mem2 l_s8 x_30 g_s7_7)))) (exists ( (x_31 Int) ) (and  (and (>= x_31 (- l_s8 g_s2_2)) (<= x_31 l_s8)) (forall ((x_32 Bool) ) (=> (= x_32 true) (mem2 x_31 x_32 g_s6_6))))))))
(define-fun |def_inv_10| () Bool (forall ( (l_s9 Int) ) (=> (and  (exists ( (x_33 Bool) ) (mem2 l_s9 x_33 g_s4_4)) (forall ((x_34 Bool) ) (=> (= x_34 false) (mem2 l_s9 x_34 g_s4_4)))) (not (exists ( (x_35 Int) ) (and  (and (>= x_35 l_s9) (<= x_35 (+ l_s9 g_s1_1))) (forall ((x_36 Bool) ) (=> (= x_36 true) (mem2 x_35 x_36 g_s5_5)))))))))
(define-fun |def_ass_0| () Bool (forall ( (l_s10 Int) ) (=> (and  (and (>= l_s10 g_s0_0) (<= l_s10 g_s3_3)) (exists ( (x_37 Bool) ) (mem2 l_s10 x_37 g_s4_4)) (forall ((x_38 Bool) ) (=> (= x_38 false) (mem2 l_s10 x_38 g_s4_4)))) (or  (<= g_s3_3 (+ l_s10 g_s2_2)) (exists ( (x_39 Int) ) (and  (and (>= x_39 l_s10) (<= x_39 (+ l_s10 g_s2_2))) (forall ((x_40 Bool) ) (=> (= x_40 false) (mem2 x_39 x_40 g_s7_7)))))))))
; PO group s19
(assert (! |def_lprp_0| :named |lprp0|))
(assert (! |def_lprp_1| :named |lprp1|))
(assert (! |def_lprp_2| :named |lprp2|))
(assert (! |def_lprp_3| :named |lprp3|))
(assert (! |def_inv_0| :named |inv0|))
(assert (! |def_inv_1| :named |inv1|))
(assert (! |def_inv_2| :named |inv2|))
(assert (! |def_inv_3| :named |inv3|))
(assert (! |def_inv_4| :named |inv4|))
(assert (! |def_inv_5| :named |inv5|))
(assert (! |def_inv_6| :named |inv6|))
(assert (! |def_inv_7| :named |inv7|))
(assert (! |def_inv_8| :named |inv8|))
(assert (! |def_inv_9| :named |inv9|))
(assert (! |def_inv_10| :named |inv10|))
(assert (! |def_ass_0| :named |ass0|))
(define-fun lh_1 () Bool true)
(define-fun lh_2 () Bool (=> (not (exists ( (x_41 Int) ) (and  (and (>= x_41 (- g_s3_3 g_s2_2)) (<= x_41 g_s3_3)) (forall ((x_42 Bool) ) (=> (= x_42 true) (mem2 x_41 x_42 g_s6_6)))))) (= g_s20_8 false)))
(define-fun lh_3 () Bool (exists ( (x_43 Bool) ) (or (and (= g_s8_9 g_s3_3) (= x_43 g_s20_8)) (and  (mem2 g_s8_9 x_43 g_s7_7) (not (exists ( (x_44 Bool) ) (and (= g_s8_9 g_s3_3) (= x_44 g_s20_8))))))))
(define-fun lh_4 () Bool (or (and (= g_s8_9 g_s3_3) (= true g_s20_8)) (and  (forall ((x_45 Bool) ) (=> (= x_45 true) (mem2 g_s8_9 x_45 g_s7_7))) (not (exists ( (x_46 Bool) ) (and (= g_s8_9 g_s3_3) (= x_46 g_s20_8)))))))
; PO 1 in group s19
(assert (! (not (=> (and lh_1 lh_2) (forall ( (x_47 Int) ) (=> (and (>= x_47 g_s0_0) (<= x_47 (- g_s3_3 1))) (exists ( (x_48 Bool) ) (or (and (= x_47 g_s3_3) (= x_48 g_s20_8)) (and  (mem2 x_47 x_48 g_s7_7) (not (exists ( (x_49 Bool) ) (and (= x_47 g_s3_3) (= x_49 g_s20_8))))))))))) :named goal))
(check-sat)
(exit)
